22

H      -5.62      -0.38       9.62
H      -5.99      -5.35      11.57
O      -8.58      -1.11      13.78
C      -6.77      -2.42      13.19
O      -6.75      -5.97      13.70
C      -7.60      -1.76      14.26
N      -7.14      -4.80      13.83
C      -5.50      -2.05      11.12
C      -6.01      -4.27      11.73
C      -4.76      -3.86       9.54
C      -6.16      -1.58      12.25
C      -5.20      -0.65      10.60
C      -5.45      -3.40      10.78
C      -6.62      -3.78      12.90
C      -5.98      -0.12      11.88
H      -6.91       0.44      11.67
O      -7.23      -1.80      15.48
O      -7.95      -4.41      14.69
F      -3.85      -0.30      10.60
F      -5.20       0.63      12.75
O      -3.97      -3.02       9.03
O      -4.99      -5.04       9.09
