20

O      -9.11       1.96      14.18
H      -9.06       4.61      14.98
C      -8.10       2.01      14.98
O      -7.68       1.03      15.67
C      -7.99       4.55      15.16
C      -7.36       3.29      15.15
H      -7.82       6.68      15.47
C      -7.28       5.73      15.43
C      -5.98       3.29      15.41
H      -4.50       1.81      14.67
C      -4.76       2.41      15.55
C      -5.88       5.72      15.63
C      -5.27       4.47      15.59
H      -4.76       1.76      16.43
C      -3.94       3.75      15.71
C      -5.04       6.94      15.75
H      -3.23       3.96      14.90
O      -5.38       7.89      16.55
O      -3.98       6.93      15.04
H      -3.42       3.87      16.68
