22

O       4.20      -7.64      14.97
O       2.94      -6.75      16.64
C       3.89      -6.70      15.78
H       6.11      -6.45      12.91
C       4.71      -5.47      15.69
H       3.62      -4.31      17.15
C       6.64      -6.18      13.84
C       4.46      -4.34      16.46
C       5.81      -5.40      14.83
H       7.11      -7.08      14.25
H       7.62      -4.41      12.77
O       3.90      -2.10      17.89
C       5.29      -3.22      16.38
C       6.63      -4.27      14.76
C       7.57      -4.91      13.75
N       4.95      -2.07      17.23
C       6.42      -3.14      15.54
H       8.59      -5.07      14.13
O       7.12      -1.11      14.53
O       5.76      -1.13      17.23
C       7.37      -1.97      15.46
O       8.39      -1.99      16.21
