30

C      -4.35       9.76      13.32
C      -3.03      13.03       9.53
O      -3.44       8.95      12.89
O      -4.66       9.90      14.54
H      -2.49      13.64       8.80
C      -2.96      11.41      11.33
C      -2.30      12.19      10.42
H      -2.40      10.76      12.00
H     -10.41      11.07      12.84
H      -1.21      12.17      10.37
O     -10.55       9.20      14.38
O      -8.21      12.32       8.99
H      -9.20      12.40      11.12
C      -9.33      10.98      12.70
C      -8.65      11.71      11.76
N      -9.32       9.28      14.50
C      -7.34      13.05       9.56
C      -8.60      10.10      13.52
O      -7.12      14.28       9.27
O      -8.67       8.73      15.40
C      -7.24      11.60      11.59
C      -6.54      12.35      10.61
C      -7.24       9.96      13.43
C      -6.50      10.72      12.47
H      -6.74       9.28      14.10
H      -4.95      13.75       8.93
C      -5.13      12.30      10.54
C      -4.40      13.09       9.59
C      -5.09      10.62      12.35
C      -4.39      11.42      11.42
